8

Ge     -0.000000047375933     -0.000000045586640     -1.192456578596143
Ge      0.000000020822558     -0.000000061132896      1.192456571890540
H       1.428457114963905     -0.000043436339140     -1.730022014699280
H      -0.714190955151849      1.237101939986466     -1.730022007773396
H      -0.714266137790607     -1.237058445125657     -1.730021997464945
H       0.714190961812673      1.237101925095693      1.730022018925434
H      -1.428457113529344     -0.000043431319249      1.730022015078953
H       0.714266134857131     -1.237058424242463      1.730021995279273
