8

Si     -0.000000204386115      0.000000017452061     -1.161974505723157
Si      0.000000202790935     -0.000000039536785      1.161974519912993
H       1.388643261309469     -0.000066227742241     -1.669017637809156
H      -0.694264598503866      1.202633637434397     -1.669017490755537
H      -0.694379375882157     -1.202567416051723     -1.669017490162587
H       0.694264600743315      1.202633601222175      1.669017474197757
H      -1.388643208080210     -0.000066239113434      1.669017633990175
H       0.694379340583713     -1.202567333762780      1.669017482102078
