8
base-UMA residual plus source-diversity seed; source=graph18; parent=ge2h4cl2_geminal; record=c0_curated_graph_edit_pool_v1_ge2h4cl2_geminal_disp0p03_s2026090407
Ge -0.040754519  0.010953779 -1.164209175
Ge  0.029240559  0.027457442  1.152465958
Cl  2.016563873 -0.015082730 -1.949747557
Cl -1.019798757  1.794596820 -1.903114706
H  -0.703291103 -1.325389107 -1.688502835
H   0.718135496  1.258790619  1.708131427
H  -1.436999895 -0.033971410  1.769951205
H   0.719747058 -1.227457463  1.675025684
