8

Ge     -1.225000000000000      0.000000000000000      0.000000000000000
Ge      1.225000000000000      0.000000000000000      0.000000000000000
Cl     -1.941666666666667      2.027039439401436      0.000000000000000
H      -1.735000000000000     -0.721248916810278      1.249239768819421
H      -1.735000000000000     -0.721248916810279     -1.249239768819421
Cl      1.941666666666667      1.013519719700718      1.755467648994611
Cl      1.941666666666667     -2.027039439401436      0.000000000000000
Cl      1.941666666666667      1.013519719700718     -1.755467648994611
