8

Si     -1.200000000000000      0.000000000000000      0.000000000000000
Ge      1.200000000000000      0.000000000000000      0.000000000000000
Cl     -1.883333333333333      1.932758535243230      0.000000000000000
H      -1.693333333333333     -0.697678690770727      1.208414939773035
H      -1.693333333333333     -0.697678690770728     -1.208414939773034
Cl      1.916666666666667      1.013519719700718      1.755467648994611
Cl      1.916666666666667     -2.027039439401436      0.000000000000000
H       1.710000000000000      0.721248916810279     -1.249239768819421
