8

Si     -1.170000000000000      0.000000000000000      0.000000000000000
Si      1.170000000000000      0.000000000000000      0.000000000000000
Cl     -1.853333333333333      1.932758535243230      0.000000000000000
H      -1.663333333333333     -0.697678690770727      1.208414939773035
H      -1.663333333333333     -0.697678690770728     -1.208414939773034
Cl      1.853333333333333      0.966379267621615      1.673817990901838
Cl      1.853333333333333     -1.932758535243230      0.000000000000000
Cl      1.853333333333333      0.966379267621615     -1.673817990901838
